734138
734138
734138
734050
725793
725793
725282
724733
704088
704088
697743
693728
693728
693728
693728
691398
690514
672298
672298
650502
650502
650502
650502
650502
622921
622921
622921
622921
622921
622921
621914
612964
612964
608731
608731
608731
608731
608731
608731
594066
594066
594066
594066
581788
581788
581788
581788
577908
577908
577908
577908
577908
577908
577908
575710
568084
568084
568084
565525
563855
563855
560596
560596
560596
560596
560596
555614
555614
555614
555614
553343
553343
553343
551188
551188
551188
535106
535106
535106
535106
535106
532947
532947
532947
532947
532947
529029
529029
529029
529029
529029
525847
525847
525847
525847
525847
525847
525847
525847
524497
